(declare-const Bracket_1 Real)
(declare-const Bracket_2 Real)
(declare-const Bracket_3 Real)
(declare-const Bracket_4 Real)
(declare-const FinalTaxes Real)
(declare-const Income Real)

(assert (=> (<= Income 51964) (and (= Bracket_1 (* 0.059 Income)) (= Bracket_2 0) (= Bracket_3 0) (= Bracket_4 0) (= FinalTaxes (+ Bracket_1 Bracket_2 Bracket_3 Bracket_4)))))
(assert (=> (and (> Income 51964) (<= Income 103930)) (and (= Bracket_1 (* 0.059 51964)) (= Bracket_2 (* 0.086 (- Income 51964))) (= Bracket_3 0) (= Bracket_4 0) (= FinalTaxes (+ Bracket_1 Bracket_2 Bracket_3 Bracket_4)))))
(assert (=> (and (> Income 103930) (<= Income 168967)) (and (= Bracket_1 (* 0.059 51964)) (= Bracket_2 (* 0.086 (- 103930 51964))) (= Bracket_3 (* 0.122 (- Income 103930))) (= Bracket_4 0) (= FinalTaxes (+ Bracket_1 Bracket_2 Bracket_3 Bracket_4)))))
(assert (=> (> Income 168967) (and (= Bracket_1 (* 0.059 51964)) (= Bracket_2 (* 0.086 (- 103930 51964))) (= Bracket_3 (* 0.122 (- 168967 103930))) (= Bracket_4 (* 0.1405 (- Income 168967))) (= FinalTaxes (+ Bracket_1 Bracket_2 Bracket_3 Bracket_4)))))
